data;

# define the sets
set STOPS:= O s1 s2 s3 F;
set STOP_PASSENGERS:= s1 s2 s3;

# parameters
param p:=  # students on stop in STOPS_PASSENGERS
    s1  15
    s2   5
    s3  10
;

param costs: O s1 s2 s3 F:=
    O  9999    8   10   10 9999
    s1 9999 9999    3    7    6
    s2 9999    3 9999    5    7
    s3 9999    7    5 9999    4
    F  9999 9999 9999 9999 9999
;

param b:=  120;  # cost per bus
param c:=    5;  # cost per km
param d:=   20;  # capacity per bus


end;